Route #1: 1 29 16 8 21 54 13 49 57 15 61 32 35 56 1
Route #2: 1 47 46 48 25 43 22 1
Route #3: 1 37 53 17 38 45 3 23 39 1
Route #4: 1 52 11 9 44 30 62 7 33 14 1
Route #5: 1 41 51 18 59 34 27 1
Route #6: 1 20 31 19 55 42 24 28 40 4 1
Route #7: 1 2 10 50 36 5 12 26 6 1
Route #8: 1 60 58 1
cost 1602.1150026690887